[TITLE]
; Zone=None | Maisons=300 | Chateaux d'eau=5
; Fautes actives : ['J23', 'J25', 'M21', 'M51']

[JUNCTIONS]
;ID              	Elev        	Demand      	Pattern
 J1              	189.79      	0.0         	                	;  [normal]
 J2              	207.64      	0.0         	                	;  [normal]
 J3              	204.8       	0.0         	                	;  [normal]
 J4              	175.03      	0.0         	                	;  [normal]
 J5              	264.71      	0.0         	                	;  [normal]
 J6              	168.9       	0.0         	                	;  [normal]
 J7              	188.81      	0.0         	                	;  [normal]
 J8              	161.35      	0.0         	                	;  [normal]
 J9              	208.13      	0.0         	                	;  [normal]
 J10             	238.22      	0.0         	                	;  [normal]
 J11             	210.29      	0.0         	                	;  [normal]
 J12             	146.04      	0.0         	                	;  [normal]
 J13             	180.37      	0.0         	                	;  [normal]
 J14             	110.85      	0.0         	                	;  [normal]
 J15             	198.52      	0.0         	                	;  [normal]
 J16             	193.45      	0.0         	                	;  [normal]
 J17             	191.12      	0.0         	                	;  [normal]
 J18             	181.34      	0.0         	                	;  [normal]
 J19             	217.22      	0.0         	                	;  [normal]
 J20             	181.57      	0.0         	                	;  [normal]
 J21             	204.2       	0.0         	                	;  [normal]
 J22             	201.81      	0.0         	                	;  [normal]
 J23             	175.13      	0.0         	                	;  [zero]
 J24             	156.72      	0.0         	                	;  [normal]
 J25             	291.78      	0.0         	                	;  [broken]
 J26             	230.29      	0.0         	                	;  [normal]
 J27             	153.58      	0.0         	                	;  [normal]
 J28             	168.82      	0.0         	                	;  [normal]
 J29             	240.33      	0.0         	                	;  [normal]
 J30             	298.14      	0.0         	                	;  [normal]
 J31             	226.93      	0.0         	                	;  [normal]
 J32             	179.73      	0.0         	                	;  [normal]
 J33             	239.31      	0.0         	                	;  [normal]
 J34             	146.92      	0.0         	                	;  [normal]
 J35             	180.1       	0.0         	                	;  [normal]
 J36             	175.32      	0.0         	                	;  [normal]
 J37             	120.75      	0.0         	                	;  [normal]
 J38             	200.8       	0.0         	                	;  [normal]
 J39             	217.59      	0.0         	                	;  [normal]
 J40             	93.57       	0.0         	                	;  [normal]
 J41             	146.17      	0.0         	                	;  [normal]
 J42             	235.39      	0.0         	                	;  [normal]
 J43             	191.8       	0.0         	                	;  [normal]
 J44             	237.25      	0.0         	                	;  [normal]
 J45             	214.49      	0.0         	                	;  [normal]
 J46             	173.81      	0.0         	                	;  [normal]
 J47             	227.63      	0.0         	                	;  [normal]
 J48             	254.7       	0.0         	                	;  [normal]
 J49             	218.6       	0.0         	                	;  [normal]
 J50             	216.41      	0.0         	                	;  [normal]
 J51             	176.65      	0.0         	                	;  [normal]
 J52             	312.87      	0.0         	                	;  [normal]
 J53             	206.29      	0.0         	                	;  [normal]
 J54             	188.1       	0.0         	                	;  [normal]
 J55             	188.36      	0.0         	                	;  [normal]
 J56             	152.43      	0.0         	                	;  [normal]
 J57             	136.97      	0.0         	                	;  [normal]
 J58             	206.76      	0.0         	                	;  [normal]
 J59             	121.32      	0.0         	                	;  [normal]
 J60             	203.12      	0.0         	                	;  [normal]
 J61             	173.63      	0.0         	                	;  [normal]
 J62             	116.68      	0.0         	                	;  [normal]
 J63             	179.32      	0.0         	                	;  [normal]
 J64             	131.46      	0.0         	                	;  [normal]
 J65             	131.18      	0.0         	                	;  [normal]
 J66             	147.93      	0.0         	                	;  [normal]
 J67             	207.12      	0.0         	                	;  [normal]
 J68             	189.13      	0.0         	                	;  [normal]
 J69             	139.38      	0.0         	                	;  [normal]
 J70             	143.81      	0.0         	                	;  [normal]
 J71             	175.23      	0.0         	                	;  [normal]
 J72             	176.9       	0.0         	                	;  [normal]
 J73             	194.95      	0.0         	                	;  [normal]
 J74             	229.05      	0.0         	                	;  [normal]
 J75             	141.13      	0.0         	                	;  [normal]
 J76             	217.19      	0.0         	                	;  [normal]
 J77             	191.61      	0.0         	                	;  [normal]
 J78             	136.04      	0.0         	                	;  [normal]
 J79             	105.05      	0.0         	                	;  [normal]
 J80             	223.43      	0.0         	                	;  [normal]
 J81             	225.39      	0.0         	                	;  [normal]
 J82             	229.39      	0.0         	                	;  [normal]
 J83             	167.66      	0.0         	                	;  [normal]
 J84             	136.74      	0.0         	                	;  [normal]
 J85             	202.92      	0.0         	                	;  [normal]
 J86             	217.7       	0.0         	                	;  [normal]
 J87             	121.13      	0.0         	                	;  [normal]
 J88             	211.05      	0.0         	                	;  [normal]
 J89             	206.55      	0.0         	                	;  [normal]
 J90             	201.46      	0.0         	                	;  [normal]
 J91             	169.39      	0.0         	                	;  [normal]
 J92             	215.57      	0.0         	                	;  [normal]
 J93             	146.05      	0.0         	                	;  [normal]
 J94             	186.28      	0.0         	                	;  [normal]
 J95             	178.6       	0.0         	                	;  [normal]
 J96             	141.07      	0.0         	                	;  [normal]
 J97             	285.14      	0.0         	                	;  [normal]
 J98             	211.74      	0.0         	                	;  [normal]
 J99             	203.62      	0.0         	                	;  [normal]
 J100            	138.11      	0.0         	                	;  [normal]
 J101            	197.54      	0.0         	                	;  [normal]
 J102            	232.51      	0.0         	                	;  [normal]
 J103            	219.12      	0.0         	                	;  [normal]
 J104            	214.94      	0.0         	                	;  [normal]
 J105            	159.9       	0.0         	                	;  [normal]
 J106            	93.88       	0.0         	                	;  [normal]
 J107            	196.03      	0.0         	                	;  [normal]
 J108            	197.86      	0.0         	                	;  [normal]
 J109            	216.73      	0.0         	                	;  [normal]
 M1              	183.93      	0.2         	                	;  [normal]
 M2              	174.54      	0.2         	                	;  [normal]
 M3              	194.45      	0.2         	                	;  [normal]
 M4              	278.65      	0.2         	                	;  [normal]
 M5              	197.6       	0.2         	                	;  [normal]
 M6              	244.18      	0.2         	                	;  [normal]
 M7              	168.17      	0.2         	                	;  [normal]
 M8              	235.49      	0.2         	                	;  [normal]
 M9              	179.21      	0.2         	                	;  [normal]
 M10             	196.76      	0.2         	                	;  [normal]
 M11             	207.62      	0.2         	                	;  [normal]
 M12             	223.31      	0.2         	                	;  [normal]
 M13             	163.99      	0.2         	                	;  [normal]
 M14             	261.84      	0.2         	                	;  [normal]
 M15             	171.36      	0.2         	                	;  [normal]
 M16             	180.88      	0.2         	                	;  [normal]
 M17             	120.56      	0.2         	                	;  [normal]
 M18             	131.95      	0.2         	                	;  [normal]
 M19             	157.34      	0.2         	                	;  [normal]
 M20             	206.56      	0.2         	                	;  [normal]
 M21             	169.21      	1.0         	                	;  [surge]
 M22             	237.29      	0.2         	                	;  [normal]
 M23             	233.23      	0.2         	                	;  [normal]
 M24             	187.89      	0.2         	                	;  [normal]
 M25             	149.46      	0.2         	                	;  [normal]
 M26             	204.82      	0.2         	                	;  [normal]
 M27             	226.65      	0.2         	                	;  [normal]
 M28             	200.35      	0.2         	                	;  [normal]
 M29             	233.82      	0.2         	                	;  [normal]
 M30             	203.41      	0.2         	                	;  [normal]
 M31             	248.94      	0.2         	                	;  [normal]
 M32             	139.71      	0.2         	                	;  [normal]
 M33             	212.93      	0.2         	                	;  [normal]
 M34             	166.85      	0.2         	                	;  [normal]
 M35             	210.05      	0.2         	                	;  [normal]
 M36             	263.26      	0.2         	                	;  [normal]
 M37             	193.0       	0.2         	                	;  [normal]
 M38             	141.42      	0.2         	                	;  [normal]
 M39             	206.33      	0.2         	                	;  [normal]
 M40             	230.06      	0.2         	                	;  [normal]
 M41             	205.32      	0.2         	                	;  [normal]
 M42             	241.83      	0.2         	                	;  [normal]
 M43             	246.55      	0.2         	                	;  [normal]
 M44             	166.96      	0.2         	                	;  [normal]
 M45             	218.56      	0.2         	                	;  [normal]
 M46             	125.33      	0.2         	                	;  [normal]
 M47             	229.63      	0.2         	                	;  [normal]
 M48             	244.98      	0.2         	                	;  [normal]
 M49             	197.61      	0.2         	                	;  [normal]
 M50             	246.82      	0.2         	                	;  [normal]
 M51             	139.13      	1.0         	                	;  [surge]
 M52             	157.55      	0.2         	                	;  [normal]
 M53             	283.61      	0.2         	                	;  [normal]
 M54             	176.89      	0.2         	                	;  [normal]
 M55             	170.02      	0.2         	                	;  [normal]
 M56             	252.15      	0.2         	                	;  [normal]
 M57             	146.09      	0.2         	                	;  [normal]
 M58             	182.91      	0.2         	                	;  [normal]
 M59             	207.05      	0.2         	                	;  [normal]
 M60             	196.2       	0.2         	                	;  [normal]

[RESERVOIRS]
;ID              	Head        	Pattern
 C1              	208.68      	 	;
 C2              	167.4       	 	;
 C3              	142.84      	 	;
 C4              	226.57      	 	;
 C5              	226.34      	 	;

[TANKS]
;ID  	Elev  	InitLevel  	MinLevel  	MaxLevel  	Diameter  	MinVol  	VolCurve

[PIPES]
;ID              	Node1           	Node2           	Length      	Diameter    	Roughness   	MinorLoss   	Status
 P1              	J1              	J81             	20.5        	85.0        	0.031       	0           	Open  	;
 P2              	J1              	J87             	20.5        	85.0        	0.031       	0           	Open  	;
 P3              	J2              	J87             	20.5        	85.0        	0.031       	0           	Open  	;
 P4              	J2              	J99             	20.5        	85.0        	0.031       	0           	Open  	;
 P5              	J3              	J75             	20.5        	85.0        	0.031       	0           	Open  	;
 P6              	J3              	J82             	20.5        	85.0        	0.031       	0           	Open  	;
 P7              	J4              	J11             	20.5        	85.0        	0.031       	0           	Open  	;
 P8              	J4              	J75             	20.5        	85.0        	0.031       	0           	Open  	;
 P9              	J4              	J97             	20.5        	85.0        	0.031       	0           	Open  	;
 P10             	J5              	J76             	20.5        	85.0        	0.031       	0           	Open  	;
 P11             	J5              	J88             	20.5        	85.0        	0.031       	0           	Open  	;
 P12             	J5              	J97             	20.5        	85.0        	0.031       	0           	Open  	;
 P13             	J6              	J13             	20.5        	85.0        	0.031       	0           	Open  	;
 P14             	J6              	J76             	20.5        	85.0        	0.031       	0           	Open  	;
 P15             	J6              	J90             	20.5        	85.0        	0.031       	0           	Open  	;
 P16             	J7              	J90             	20.5        	85.0        	0.031       	0           	Open  	;
 P17             	J8              	J62             	20.5        	85.0        	0.031       	0           	Open  	;
 P18             	J8              	J81             	20.5        	85.0        	0.031       	0           	Open  	;
 P19             	J8              	J98             	20.5        	85.0        	0.031       	0           	Open  	;
 P20             	J9              	J16             	20.5        	85.0        	0.031       	0           	Open  	;
 P21             	J9              	J85             	20.5        	85.0        	0.031       	0           	Open  	;
 P22             	J9              	J98             	20.5        	85.0        	0.031       	0           	Open  	;
 P23             	J9              	J99             	20.5        	85.0        	0.031       	0           	Open  	;
 P24             	J10             	J11             	20.5        	85.0        	0.031       	0           	Open  	;
 P25             	J10             	J82             	20.5        	85.0        	0.031       	0           	Open  	;
 P26             	J10             	J85             	20.5        	85.0        	0.031       	0           	Open  	;
 P27             	J10             	J100            	20.5        	85.0        	0.031       	0           	Open  	;
 P28             	J11             	J86             	20.5        	85.0        	0.031       	0           	Open  	;
 P29             	J12             	J86             	20.5        	85.0        	0.031       	0           	Open  	;
 P30             	J12             	J88             	20.5        	85.0        	0.031       	0           	Open  	;
 P31             	J12             	J93             	20.5        	85.0        	0.031       	0           	Open  	;
 P32             	J13             	J79             	20.5        	85.0        	0.031       	0           	Open  	;
 P33             	J13             	J92             	20.5        	85.0        	0.031       	0           	Open  	;
 P34             	J13             	J93             	20.5        	85.0        	0.031       	0           	Open  	;
 P35             	J14             	J21             	20.5        	85.0        	0.031       	0           	Open  	;
 P36             	J14             	J79             	20.5        	85.0        	0.031       	0           	Open  	;
 P37             	J15             	J60             	20.5        	85.0        	0.031       	0           	Open  	;
 P38             	J15             	J62             	20.5        	85.0        	0.031       	0           	Open  	;
 P39             	J15             	J74             	20.5        	85.0        	0.031       	0           	Open  	;
 P40             	J16             	J17             	20.5        	85.0        	0.031       	0           	Open  	;
 P41             	J16             	J52             	20.5        	85.0        	0.031       	0           	Open  	;
 P42             	J16             	J60             	20.5        	85.0        	0.031       	0           	Open  	;
 P43             	J17             	J24             	20.5        	85.0        	0.031       	0           	Open  	;
 P44             	J17             	J18             	20.5        	85.0        	0.031       	0           	Open  	;
 P45             	J17             	J100            	20.5        	85.0        	0.031       	0           	Open  	;
 P46             	J18             	J71             	20.5        	85.0        	0.031       	0           	Open  	;
 P47             	J19             	J69             	20.5        	85.0        	0.031       	0           	Open  	;
 P48             	J19             	J73             	20.5        	85.0        	0.031       	0           	Open  	;
 P49             	J20             	J51             	20.5        	85.0        	0.031       	0           	Open  	;
 P50             	J20             	J69             	20.5        	85.0        	0.031       	0           	Open  	;
 P51             	J20             	J92             	20.5        	85.0        	0.031       	0           	Open  	;
 P52             	J20             	J105            	20.5        	85.0        	0.031       	0           	Open  	;
 P53             	J21             	J51             	20.5        	85.0        	0.031       	0           	Open  	;
 P54             	J21             	J108            	20.5        	85.0        	0.031       	0           	Open  	;
 P55             	J22             	J70             	20.5        	85.0        	0.031       	0           	Open  	;
 P56             	J22             	J74             	20.5        	85.0        	0.031       	0           	Open  	;
 P57             	J22             	J84             	20.5        	85.0        	0.031       	0           	Open  	;
 P58             	J23             	J52             	20.5        	85.0        	0.031       	0           	Open  	;
 P59             	J23             	J84             	20.5        	85.0        	0.031       	0           	Open  	;
 P60             	J23             	J101            	20.5        	85.0        	0.031       	0           	Open  	;
 P61             	J24             	J53             	20.5        	85.0        	0.031       	0           	Open  	;
 P62             	J24             	J61             	20.5        	85.0        	0.031       	0           	Open  	;
 P63             	J24             	J101            	20.5        	85.0        	0.031       	0           	Open  	;
 P64             	J25             	J26             	20.5        	85.0        	0.031       	0           	Open  	;
 P65             	J25             	J53             	20.5        	85.0        	0.031       	0           	Open  	;
 P66             	J25             	J71             	20.5        	85.0        	0.031       	0           	Open  	;
 P67             	J25             	J89             	20.5        	85.0        	0.031       	0           	Open  	;
 P68             	J26             	J27             	20.5        	85.0        	0.031       	0           	Open  	;
 P69             	J26             	J58             	20.5        	85.0        	0.031       	0           	Open  	;
 P70             	J26             	J73             	20.5        	85.0        	0.031       	0           	Open  	;
 P71             	J27             	J50             	20.5        	85.0        	0.031       	0           	Open  	;
 P72             	J27             	J91             	20.5        	85.0        	0.031       	0           	Open  	;
 P73             	J27             	J105            	20.5        	85.0        	0.031       	0           	Open  	;
 P74             	J28             	J56             	20.5        	85.0        	0.031       	0           	Open  	;
 P75             	J28             	J91             	20.5        	85.0        	0.031       	0           	Open  	;
 P76             	J28             	J108            	20.5        	85.0        	0.031       	0           	Open  	;
 P77             	J28             	C1              	20.5        	150.0       	0.031       	0           	Open  	;
 P78             	J29             	J63             	20.5        	85.0        	0.031       	0           	Open  	;
 P79             	J29             	J65             	20.5        	85.0        	0.031       	0           	Open  	;
 P80             	J29             	J70             	20.5        	85.0        	0.031       	0           	Open  	;
 P81             	J30             	J63             	20.5        	85.0        	0.031       	0           	Open  	;
 P82             	J30             	J64             	20.5        	85.0        	0.031       	0           	Open  	;
 P83             	J30             	J95             	20.5        	85.0        	0.031       	0           	Open  	;
 P84             	J31             	J61             	20.5        	85.0        	0.031       	0           	Open  	;
 P85             	J31             	J64             	20.5        	85.0        	0.031       	0           	Open  	;
 P86             	J31             	J83             	20.5        	85.0        	0.031       	0           	Open  	;
 P87             	J31             	J107            	20.5        	85.0        	0.031       	0           	Open  	;
 P88             	J32             	J39             	20.5        	85.0        	0.031       	0           	Open  	;
 P89             	J32             	J89             	20.5        	85.0        	0.031       	0           	Open  	;
 P90             	J32             	J106            	20.5        	85.0        	0.031       	0           	Open  	;
 P91             	J32             	J107            	20.5        	85.0        	0.031       	0           	Open  	;
 P92             	J33             	J55             	20.5        	85.0        	0.031       	0           	Open  	;
 P93             	J33             	J58             	20.5        	85.0        	0.031       	0           	Open  	;
 P94             	J33             	J80             	20.5        	85.0        	0.031       	0           	Open  	;
 P95             	J33             	J106            	20.5        	85.0        	0.031       	0           	Open  	;
 P96             	J34             	J35             	20.5        	85.0        	0.031       	0           	Open  	;
 P97             	J34             	J50             	20.5        	85.0        	0.031       	0           	Open  	;
 P98             	J34             	J55             	20.5        	85.0        	0.031       	0           	Open  	;
 P99             	J34             	J96             	20.5        	85.0        	0.031       	0           	Open  	;
 P100            	J35             	J56             	20.5        	85.0        	0.031       	0           	Open  	;
 P101            	J35             	J57             	20.5        	85.0        	0.031       	0           	Open  	;
 P102            	J36             	J37             	20.5        	85.0        	0.031       	0           	Open  	;
 P103            	J36             	J65             	20.5        	85.0        	0.031       	0           	Open  	;
 P104            	J36             	J72             	20.5        	85.0        	0.031       	0           	Open  	;
 P105            	J37             	J54             	20.5        	85.0        	0.031       	0           	Open  	;
 P106            	J37             	J59             	20.5        	85.0        	0.031       	0           	Open  	;
 P107            	J37             	J95             	20.5        	85.0        	0.031       	0           	Open  	;
 P108            	J38             	J54             	20.5        	85.0        	0.031       	0           	Open  	;
 P109            	J38             	J78             	20.5        	85.0        	0.031       	0           	Open  	;
 P110            	J38             	J83             	20.5        	85.0        	0.031       	0           	Open  	;
 P111            	J38             	J109            	20.5        	85.0        	0.031       	0           	Open  	;
 P112            	J39             	J68             	20.5        	85.0        	0.031       	0           	Open  	;
 P113            	J39             	J104            	20.5        	85.0        	0.031       	0           	Open  	;
 P114            	J39             	J109            	20.5        	85.0        	0.031       	0           	Open  	;
 P115            	J40             	J66             	20.5        	85.0        	0.031       	0           	Open  	;
 P116            	J40             	J68             	20.5        	85.0        	0.031       	0           	Open  	;
 P117            	J40             	J80             	20.5        	85.0        	0.031       	0           	Open  	;
 P118            	J40             	C2              	20.5        	150.0       	0.031       	0           	Open  	;
 P119            	J41             	J66             	20.5        	85.0        	0.031       	0           	Open  	;
 P120            	J41             	J67             	20.5        	85.0        	0.031       	0           	Open  	;
 P121            	J41             	J96             	20.5        	85.0        	0.031       	0           	Open  	;
 P122            	J41             	J103            	20.5        	85.0        	0.031       	0           	Open  	;
 P123            	J42             	J49             	20.5        	85.0        	0.031       	0           	Open  	;
 P124            	J42             	J57             	20.5        	85.0        	0.031       	0           	Open  	;
 P125            	J42             	J103            	20.5        	85.0        	0.031       	0           	Open  	;
 P126            	J43             	J72             	20.5        	85.0        	0.031       	0           	Open  	;
 P127            	J43             	J94             	20.5        	85.0        	0.031       	0           	Open  	;
 P128            	J44             	J59             	20.5        	85.0        	0.031       	0           	Open  	;
 P129            	J44             	J94             	20.5        	85.0        	0.031       	0           	Open  	;
 P130            	J44             	J102            	20.5        	85.0        	0.031       	0           	Open  	;
 P131            	J45             	J77             	20.5        	85.0        	0.031       	0           	Open  	;
 P132            	J45             	J78             	20.5        	85.0        	0.031       	0           	Open  	;
 P133            	J45             	J102            	20.5        	85.0        	0.031       	0           	Open  	;
 P134            	J46             	J77             	20.5        	85.0        	0.031       	0           	Open  	;
 P135            	J46             	J104            	20.5        	85.0        	0.031       	0           	Open  	;
 P136            	J47             	J48             	20.5        	85.0        	0.031       	0           	Open  	;
 P137            	J48             	J49             	20.5        	85.0        	0.031       	0           	Open  	;
 P138            	J48             	J67             	20.5        	85.0        	0.031       	0           	Open  	;
 P139            	J50             	M1              	2.1         	20.0        	0.031       	0           	Open  	;
 P140            	J51             	M2              	2.1         	20.0        	0.031       	0           	Open  	;
 P141            	J52             	M3              	2.1         	20.0        	0.031       	0           	Open  	;
 P142            	J53             	M4              	2.1         	20.0        	0.031       	0           	Open  	;
 P143            	J54             	M5              	2.1         	20.0        	0.031       	0           	Open  	;
 P144            	J55             	M6              	2.1         	20.0        	0.031       	0           	Open  	;
 P145            	J56             	M7              	2.1         	20.0        	0.031       	0           	Open  	;
 P146            	J57             	M8              	2.1         	20.0        	0.031       	0           	Open  	;
 P147            	J58             	M9              	2.1         	20.0        	0.031       	0           	Open  	;
 P148            	J59             	M10             	2.1         	20.0        	0.031       	0           	Open  	;
 P149            	M10             	C3              	20.5        	150.0       	0.031       	0           	Open  	;
 P150            	J60             	M11             	2.1         	20.0        	0.031       	0           	Open  	;
 P151            	J61             	M12             	2.1         	20.0        	0.031       	0           	Open  	;
 P152            	J62             	M13             	2.1         	20.0        	0.031       	0           	Open  	;
 P153            	J63             	M14             	2.1         	20.0        	0.031       	0           	Open  	;
 P154            	J64             	M15             	2.1         	20.0        	0.031       	0           	Open  	;
 P155            	J65             	M16             	2.1         	20.0        	0.031       	0           	Open  	;
 P156            	J66             	M17             	2.1         	20.0        	0.031       	0           	Open  	;
 P157            	J67             	M18             	2.1         	20.0        	0.031       	0           	Open  	;
 P158            	J68             	M19             	2.1         	20.0        	0.031       	0           	Open  	;
 P159            	J69             	M20             	2.1         	20.0        	0.031       	0           	Open  	;
 P160            	J70             	M21             	2.1         	20.0        	0.031       	0           	Open  	;
 P161            	J71             	M22             	2.1         	20.0        	0.031       	0           	Open  	;
 P162            	J72             	M23             	2.1         	20.0        	0.031       	0           	Open  	;
 P163            	J73             	M24             	2.1         	20.0        	0.031       	0           	Open  	;
 P164            	J74             	M25             	2.1         	20.0        	0.031       	0           	Open  	;
 P165            	J75             	M26             	2.1         	20.0        	0.031       	0           	Open  	;
 P166            	J76             	M27             	2.1         	20.0        	0.031       	0           	Open  	;
 P167            	J77             	M28             	2.1         	20.0        	0.031       	0           	Open  	;
 P168            	J78             	M29             	2.1         	20.0        	0.031       	0           	Open  	;
 P169            	J79             	M30             	2.1         	20.0        	0.031       	0           	Open  	;
 P170            	J80             	M31             	2.1         	20.0        	0.031       	0           	Open  	;
 P171            	J81             	M32             	2.1         	20.0        	0.031       	0           	Open  	;
 P172            	J82             	M33             	2.1         	20.0        	0.031       	0           	Open  	;
 P173            	J83             	M34             	2.1         	20.0        	0.031       	0           	Open  	;
 P174            	J84             	M35             	2.1         	20.0        	0.031       	0           	Open  	;
 P175            	J85             	M36             	2.1         	20.0        	0.031       	0           	Open  	;
 P176            	J86             	M37             	2.1         	20.0        	0.031       	0           	Open  	;
 P177            	J87             	M38             	2.1         	20.0        	0.031       	0           	Open  	;
 P178            	J88             	M39             	2.1         	20.0        	0.031       	0           	Open  	;
 P179            	M39             	C4              	20.5        	150.0       	0.031       	0           	Open  	;
 P180            	J89             	M40             	2.1         	20.0        	0.031       	0           	Open  	;
 P181            	J90             	M41             	2.1         	20.0        	0.031       	0           	Open  	;
 P182            	J91             	M42             	2.1         	20.0        	0.031       	0           	Open  	;
 P183            	J92             	M43             	2.1         	20.0        	0.031       	0           	Open  	;
 P184            	J93             	M44             	2.1         	20.0        	0.031       	0           	Open  	;
 P185            	J94             	M45             	2.1         	20.0        	0.031       	0           	Open  	;
 P186            	M45             	C5              	20.5        	150.0       	0.031       	0           	Open  	;
 P187            	J95             	M46             	2.1         	20.0        	0.031       	0           	Open  	;
 P188            	J96             	M47             	2.1         	20.0        	0.031       	0           	Open  	;
 P189            	J97             	M48             	2.1         	20.0        	0.031       	0           	Open  	;
 P190            	J98             	M49             	2.1         	20.0        	0.031       	0           	Open  	;
 P191            	J99             	M50             	2.1         	20.0        	0.031       	0           	Open  	;
 P192            	J100            	M51             	2.1         	20.0        	0.031       	0           	Open  	;
 P193            	J101            	M52             	2.1         	20.0        	0.031       	0           	Open  	;
 P194            	J102            	M53             	2.1         	20.0        	0.031       	0           	Open  	;
 P195            	J103            	M54             	2.1         	20.0        	0.031       	0           	Open  	;
 P196            	J104            	M55             	2.1         	20.0        	0.031       	0           	Open  	;
 P197            	J105            	M56             	2.1         	20.0        	0.031       	0           	Open  	;
 P198            	J106            	M57             	2.1         	20.0        	0.031       	0           	Open  	;
 P199            	J107            	M58             	2.1         	20.0        	0.031       	0           	Open  	;
 P200            	J108            	M59             	2.1         	20.0        	0.031       	0           	Open  	;
 P201            	J109            	M60             	2.1         	20.0        	0.031       	0           	Open  	;

[PUMPS]
;ID  	Node1  	Node2  	Parameters

[VALVES]
;ID  	Node1  	Node2  	Diameter  	Type  	Setting  	MinorLoss

[TAGS]
[DEMANDS]
[STATUS]
[QUALITY]
;Node            	InitQual
; [CAPTEUR CASSÉ] J25  (type: junction)

[PATTERNS]
[CURVES]
[CONTROLS]
[RULES]
[ENERGY]
 Global Efficiency  	75
 Global Price  	0
 Demand Charge  	0
[EMITTERS]
[SOURCES]
[REACTIONS]
 Order Bulk 	1
 Order Tank 	1
 Order Wall 	1
 Global Bulk 	0
 Global Wall 	0
 Limiting Potential 	0
 Roughness Correlation 	0
[MIXING]
[TIMES]
 Duration           	24:00 
 Hydraulic Timestep 	1:00 
 Quality Timestep   	0:05 
 Pattern Timestep   	1:00 
 Report Timestep    	1:00 
 Start ClockTime    	12 am
 Statistic          	NONE
[REPORT]
 Status 	No
 Summary 	No
 Page 	0
[OPTIONS]
 Units              	LPS
 Headloss           	D-W
 Specific Gravity   	1
 Viscosity          	1
 Trials             	40
 Accuracy           	0.001
 Unbalanced         	Continue 10
 Demand Multiplier  	1.0
 Quality            	None mg/L
 Tolerance          	0.01
[COORDINATES]
;Node  	X-Coord  	Y-Coord
 J1              	3022.74         	8668.19         
 J2              	3511.26         	8487.40         
 J3              	5781.77         	8192.83         
 J4              	6381.61         	8072.37         
 J5              	7385.39         	7939.72         
 J6              	8096.34         	7278.75         
 J7              	8733.30         	7571.22         
 J8              	3082.22         	7968.39         
 J9              	3966.59         	7610.66         
 J10             	5231.68         	7573.94         
 J11             	5989.31         	7776.32         
 J12             	7218.50         	7641.55         
 J13             	7962.29         	6721.41         
 J14             	8313.81         	5765.86         
 J15             	2880.56         	7077.58         
 J16             	3893.90         	6927.70         
 J17             	4389.98         	6357.96         
 J18             	4721.73         	5849.70         
 J19             	6972.66         	4995.05         
 J20             	7671.09         	5444.52         
 J21             	8270.44         	5233.70         
 J22             	2403.24         	6049.52         
 J23             	3370.02         	6222.58         
 J24             	4212.72         	5581.77         
 J25             	5315.85         	4752.47         
 J26             	6168.15         	4462.85         
 J27             	6954.84         	4358.37         
 J28             	7948.17         	4153.26         
 J29             	1846.63         	4836.66         
 J30             	2361.36         	4156.79         
 J31             	3561.84         	4203.09         
 J32             	4663.97         	3601.44         
 J33             	5890.20         	3376.87         
 J34             	7014.73         	3185.50         
 J35             	7541.62         	3130.87         
 J36             	1501.61         	3746.29         
 J37             	1878.06         	3410.76         
 J38             	3037.81         	3175.77         
 J39             	4325.26         	2984.33         
 J40             	5635.35         	2508.54         
 J41             	6863.83         	2162.78         
 J42             	7577.48         	2185.19         
 J43             	1018.14         	3066.76         
 J44             	1506.98         	2654.34         
 J45             	2473.00         	2458.07         
 J46             	3397.20         	2413.43         
 J47             	7637.10         	1358.64         
 J48             	7487.73         	1597.93         
 J49             	7627.66         	1843.93         
 J50             	7032.08         	3758.57         
 M1              	7211.24         	3654.14         
 J51             	8068.73         	5391.34         
 M2              	8323.75         	5432.41         
 J52             	3586.52         	6615.91         
 M3              	3446.93         	6744.06         
 J53             	4759.78         	5169.39         
 M4              	4651.35         	5251.05         
 J54             	2427.91         	3248.50         
 M5              	2261.81         	3107.36         
 J55             	6463.26         	3235.46         
 M6              	6560.68         	3058.45         
 J56             	7844.17         	3599.29         
 M7              	8083.77         	3491.42         
 J57             	7668.87         	2627.05         
 M8              	7899.48         	2495.13         
 J58             	6049.35         	3907.84         
 M9              	6166.14         	3798.94         
 J59             	1573.06         	2989.51         
 M10             	1300.78         	2757.75         
 J60             	3366.09         	7061.12         
 M11             	3225.97         	7228.15         
 J61             	3865.61         	4899.31         
 M12             	3698.87         	4927.27         
 J62             	2874.44         	7575.68         
 M13             	2665.27         	7729.74         
 J63             	2029.99         	4490.00         
 M14             	1805.51         	4540.18         
 J64             	2941.33         	4183.01         
 M15             	2760.82         	4192.89         
 J65             	1571.88         	4312.88         
 M16             	1311.59         	4346.12         
 J66             	6245.35         	2253.61         
 M17             	6274.14         	2001.05         
 J67             	7160.34         	1769.01         
 M18             	7216.41         	1501.87         
 J68             	4964.70         	2679.60         
 M19             	4937.58         	2439.83         
 J69             	7348.29         	5238.52         
 M20             	7508.02         	5329.30         
 J70             	2052.74         	5471.72         
 M21             	1818.06         	5550.26         
 J71             	5041.43         	5319.10         
 M22             	5151.90         	5447.30         
 J72             	1139.40         	3431.83         
 M23             	872.81          	3413.46         
 J73             	6580.61         	4735.20         
 M24             	6701.65         	4820.51         
 J74             	2550.33         	6609.43         
 M25             	2321.15         	6726.56         
 J75             	6110.01         	8300.67         
 M26             	6147.02         	8558.36         
 J76             	7820.80         	7690.91         
 M27             	8007.01         	7869.19         
 J77             	2913.62         	2308.87         
 M28             	2836.34         	2054.93         
 J78             	2738.90         	2770.33         
 M29             	2635.52         	2570.91         
 J79             	8248.23         	6283.32         
 M30             	8495.76         	6362.11         
 J80             	5789.97         	2897.32         
 M31             	5840.00         	2690.30         
 J81             	2936.56         	8383.69         
 M32             	2749.65         	8581.18         
 J82             	5475.10         	7964.87         
 M33             	5454.63         	8203.23         
 J83             	3277.61         	3680.50         
 M34             	3138.35         	3567.94         
 J84             	2844.75         	6169.62         
 M35             	2639.91         	6247.56         
 J85             	4599.24         	7661.25         
 M36             	4594.14         	7891.52         
 J86             	6616.78         	7755.88         
 M37             	6692.97         	7946.00         
 J87             	3255.59         	8770.33         
 M38             	3172.04         	9030.67         
 J88             	7456.41         	8011.40         
 M39             	7653.24         	8323.63         
 J89             	4991.58         	4170.72         
 M40             	4984.54         	4032.90         
 J90             	8478.42         	7494.49         
 M41             	8674.76         	7677.00         
 J91             	7486.84         	4242.18         
 M42             	7691.94         	4180.03         
 J92             	7860.32         	6091.40         
 M43             	8049.31         	6180.41         
 J93             	7634.57         	7215.46         
 M44             	7804.13         	7336.40         
 J94             	1061.58         	2715.54         
 M45             	734.13          	2526.52         
 J95             	2048.33         	3795.14         
 M46             	1830.74         	3769.09         
 J96             	6992.71         	2637.39         
 M47             	7130.77         	2464.72         
 J97             	6910.29         	8113.02         
 M48             	6992.73         	8357.63         
 J98             	3515.47         	7859.08         
 M49             	3411.85         	8065.10         
 J99             	3758.97         	8112.57         
 M50             	3758.81         	8357.89         
 J100            	4808.52         	6985.72         
 M51             	4838.86         	7167.08         
 J101            	3773.64         	5908.08         
 M52             	3619.40         	5971.74         
 J102            	1944.15         	2448.63         
 M53             	1801.61         	2224.78         
 J103            	7263.44         	2053.11         
 M54             	7400.97         	1847.75         
 J104            	3879.31         	2616.34         
 M55             	3861.76         	2368.40         
 J105            	7357.64         	4887.83         
 M56             	7567.38         	4874.91         
 J106            	5273.36         	3450.82         
 M57             	5263.62         	3265.10         
 J107            	4099.99         	3880.38         
 M58             	4019.45         	3736.82         
 J108            	8214.72         	4672.35         
 M59             	8478.89         	4641.92         
 J109            	3669.26         	3028.97         
 M60             	3600.28         	2831.44         
 C1              	8201.56         	4085.06         
 C2              	5630.72         	2257.36         
 C3              	1111.29         	2561.95         
 C4              	7797.58         	8550.75         
 C5              	500.00          	2389.84         
[VERTICES]
[LABELS]
[BACKDROP]
 DIMENSIONS 	0.00 	0.00 	10000.00 	10000.00
 UNITS 	None
 FILE 	
 OFFSET 	0.00 	0.00
[END]